
  22   10
  10   10   10   10   10   10   10   10   10   10

   0   0   0   0   0   0   0   0   0   0   0   5 2 3 4 6 10 
   5  10  10  10  10  10  10  10  10  10  10   5 17 13 11 8 5 
   5  10  10  10  10  10  10  10  10  10  10   5 13 11 8 7 5 
   7  10  10  10  10  10  10  10  10  10  10   3 13 7 5 
   7  10  10  10  10  10  10  10  10  10  10   3 21 16 9 
   4  10  10  10  10  10  10  10  10  10  10   4 21 15 12 11 
  10  10  10  10  10  10  10  10  10  10  10   4 21 19 16 12 
   6  10  10  10  10  10  10  10  10  10  10   4 20 16 15 14 
   3  10  10  10  10  10  10  10  10  10  10   2 15 12 
   1  10  10  10  10  10  10  10  10  10  10   2 15 12 
   7  10  10  10  10  10  10  10  10  10  10   3 20 19 14 
   6  10  10  10  10  10  10  10  10  10  10   2 20 14 
   4  10  10  10  10  10  10  10  10  10  10   2 21 16 
   8  10  10  10  10  10  10  10  10  10  10   1 18 
  10  10  10  10  10  10  10  10  10  10  10   1 19 
   8  10  10  10  10  10  10  10  10  10  10   1 18 
   1  10  10  10  10  10  10  10  10  10  10   1 19 
   1  10  10  10  10  10  10  10  10  10  10   1 22
  10  10  10  10  10  10  10  10  10  10  10   1 22
   4  10  10  10  10  10  10  10  10  10  10   1 22
   6  10  10  10  10  10  10  10  10  10  10   1 22
   0   0   0   0   0   0   0   0   0   0   0   0 
